(set-info :origin "SVCOMP13 benchmarks generated by Arie Gurfinkel")
(set-info :status sat)
(set-logic HORN)
(declare-fun cp-rel-bb1.i24.i.i.split () Bool)
(declare-fun cp-rel-entry () Bool)
(declare-fun cp-rel-bb.i58.i.us
             (Real Real Real Real Real Bool Real Real Real Real Real)
             Bool)
(declare-fun cp-rel-bb.i58.i
             (Real Real Real Real Real Bool Real Real Real Real)
             Bool)
(declare-fun cp-rel-__UFO__0
             (Real Real Real Real Real Bool Real Real Real Real Real)
             Bool)
(declare-fun cp-rel-bb.i58.i.outer (Real Real Real Real Real Real) Bool)
(assert |cp-rel-entry|)
(assert (forall ((?A Real) (?B Real) (?C Real) (?D Real) (?E Real) (?F Real) (?G Bool) )(let (($x343144 (= ?G true)))
(let (($x869126 (and |cp-rel-entry| (<= ?F 0.0) (>= ?E 0.0) (<= ?E 0.0) (>= ?D 0.0) (<= ?D 0.0) (>= ?C 0.0) (<= ?C 0.0) (>= ?B 0.0) (<= ?B 0.0) (>= ?A 0.0) (<= ?A 0.0) $x343144 (>= ?F 0.0))))
(=> $x869126 (|cp-rel-bb.i58.i.outer| ?A ?B ?C ?D ?E ?F)))))
)
(assert (forall ((?A Real) (?B Real) (?C Real) (?D Real) (?E Real) (?F Real) (?G Real) (?H Real) (?I Real) (?J Real) (?K Real) (?L Bool) (?M Real) (?N Real) (?O Real) (?P Real) (?Q Real) (?R Bool) (?S Bool) (?T Bool) (?U Bool) (?V Bool) (?W Bool) (?X Bool) (?Y Bool) (?Z Bool) (?A1 Bool) (?B1 Bool) (?C1 Bool) (?D1 Real) (?E1 Real) (?F1 Real) (?G1 Real) (?H1 Real) (?I1 Bool) (?J1 Bool) (?K1 Bool) (?L1 Bool) (?M1 Bool) (?N1 Bool) (?O1 Bool) (?P1 Bool) (?Q1 Bool) (?R1 Real) (?S1 Real) (?T1 Real) (?U1 Real) (?V1 Real) (?W1 Bool) (?X1 Bool) (?Y1 Real) (?Z1 Bool) (?A2 Bool) (?B2 Bool) (?C2 Bool) (?D2 Bool) (?E2 Bool) (?F2 Real) (?G2 Real) (?H2 Real) (?I2 Real) (?J2 Bool) (?K2 Bool) (?L2 Real) (?M2 Real) (?N2 Bool) (?O2 Real) (?P2 Real) (?Q2 Bool) (?R2 Bool) (?S2 Real) (?T2 Real) (?U2 Bool) )(let (($x235242 (and ?V ?B1 (not ?C1) (<= ?D1 ?Q) (>= ?D1 ?Q) (<= ?E1 ?P) (>= ?E1 ?P) (<= ?F1 ?O) (>= ?F1 ?O) (<= ?G1 ?N) (>= ?G1 ?N) (<= ?H1 ?M) (>= ?H1 ?M))))
(let (($x866761 (and ?L1 ?X1 (<= ?R1 1.0) (>= ?R1 1.0) (<= ?S1 ?Y1) (>= ?S1 ?Y1) (<= ?T1 ?Y1) (>= ?T1 ?Y1) (<= ?U1 2.0) (>= ?U1 2.0) (<= ?V1 0.0) (>= ?V1 0.0))))
(let (($x29850 (and ?R ?W1 ?Z (<= ?R1 ?M) (>= ?R1 ?M) (<= ?S1 ?N) (>= ?S1 ?N) (<= ?T1 ?O) (>= ?T1 ?O) (<= ?U1 ?P) (>= ?U1 ?P) (<= ?V1 ?Q) (>= ?V1 ?Q))))
(let (($x542555 (and ?V ?Q1 ?C1 (<= ?R1 ?M) (>= ?R1 ?M) (<= ?S1 ?N) (>= ?S1 ?N) (<= ?T1 ?O) (>= ?T1 ?O) (<= ?U1 ?P) (>= ?U1 ?P) (<= ?V1 ?Q) (>= ?V1 ?Q))))
(let (($x295392 (not ?P1)))
(let (($x866778 (or $x295392 (and ?Q1 (not ?W1) (not ?X1)) (and ?W1 (not ?Q1) (not ?X1)) (and ?X1 (not ?Q1) (not ?W1)))))
(let (($x402953 (not ?E2)))
(let (($x409037 (and ?Z1 ?D2 $x402953 (<= ?F2 ?U1) (>= ?F2 ?U1) (<= ?G2 ?T1) (>= ?G2 ?T1) (<= ?H2 ?S1) (>= ?H2 ?S1) (<= ?I2 ?R1) (>= ?I2 ?R1))))
(let (($x847203 (not ?C2)))
(let (($x875641 (not ?J2)))
(let (($x522329 (or $x875641 ?K2)))
(let (($x107107 (and ?A1 ?N2 (<= ?A ?H1) (>= ?A ?H1) (<= ?B ?O2) (>= ?B ?O2) (<= ?C ?G1) (>= ?C ?G1) (<= ?D ?F1) (>= ?D ?F1) (<= ?E ?E1) (>= ?E ?E1) (<= ?F ?D1) (>= ?F ?D1))))
(let (($x235149 (and ?C2 (not ?L) (<= ?A ?I2) (>= ?A ?I2) (<= ?B 1.0) (>= ?B 1.0) (<= ?C ?H2) (>= ?C ?H2) (<= ?D ?G2) (>= ?D ?G2) (<= ?E ?F2) (>= ?E ?F2) (<= ?F 2.0) (>= ?F 2.0))))
(let (($x125144 (and ?J2 (<= ?A ?I2) (>= ?A ?I2) (<= ?B 1.0) (>= ?B 1.0) (<= ?C ?L2) (>= ?C ?L2) (<= ?D ?G2) (>= ?D ?G2) (<= ?E ?M2) (>= ?E ?M2) (<= ?F 2.0) (>= ?F 2.0))))
(let (($x631782 (|cp-rel-bb.i58.i.us| ?G ?H ?I ?J ?K ?L ?M ?N ?O ?P ?Q)))
(let (($x174650 (and $x631782 (= ?U2 (= ?I2 1.0)) (= ?L2 (+ 1.0 ?H2)) (= ?E2 (= ?T2 0.0)) (= ?B2 (= ?V1 0.0)) (= ?N1 (= ?S2 ?N)) (= ?S2 (+ 1.0 ?O)) (= ?N2 (or ?R2 ?Q2)) (= ?R2 (= ?D1 0.0)) (= ?Q2 (= ?E1 0.0)) (= ?K1 (= ?M 1.0)) (= ?C1 (= ?Q 0.0)) (= ?Z (= ?P2 0.0)) (= ?U (= ?P 0.0)) (or $x125144 $x235149 $x107107) $x522329 (or $x875641 (and ?C2 ?K2 ?L)) (or $x847203 ?D2) (or $x847203 $x409037) (or (not ?Z1) ?A2) (or (not ?Z1) (and ?P1 ?A2 ?B2)) $x866778 (or $x295392 $x542555 $x29850 $x866761) (or (not ?L1) (and ?M1 (not ?O1)) (and ?O1 (not ?M1))) (or (not ?L1) (and ?I1 ?M1 ?N1) (and ?X ?O1 (not ?K1))) (or (not ?I1) ?J1) (or (not ?I1) (and ?X ?J1 ?K1)) (or (not ?A1) ?B1) (or (not ?A1) $x235242) (or (not ?X) ?Y) (or (not ?X) (and ?R ?Y (not ?Z))) (or (not ?V) ?W) (or (not ?V) (and ?S ?W (not ?U))) (or (not ?R) ?T) (or (not ?R) (and ?S ?T ?U)) (= ?M2 (ite ?U2 0.0 ?F2)))))
(=> $x174650 (|cp-rel-bb.i58.i.outer| ?A ?B ?C ?D ?E ?F)))))))))))))))))))
)
(assert (forall ((?A Real) (?B Real) (?C Real) (?D Real) (?E Real) (?F Real) (?G Real) (?H Real) (?I Real) (?J Real) (?K Real) (?L Bool) (?M Bool) (?N Real) (?O Real) (?P Real) (?Q Real) (?R Real) (?S Bool) (?T Real) (?U Real) (?V Real) (?W Real) (?X Bool) (?Y Bool) (?Z Real) (?A1 Real) (?B1 Bool) (?C1 Real) (?D1 Bool) (?E1 Bool) (?F1 Bool) (?G1 Real) (?H1 Real) (?I1 Real) (?J1 Real) (?K1 Bool) (?L1 Bool) (?M1 Bool) (?N1 Bool) (?O1 Bool) (?P1 Bool) (?Q1 Bool) (?R1 Bool) (?S1 Bool) (?T1 Bool) (?U1 Bool) (?V1 Bool) (?W1 Bool) (?X1 Bool) (?Y1 Bool) (?Z1 Bool) (?A2 Bool) (?B2 Bool) (?C2 Bool) (?D2 Bool) (?E2 Real) (?F2 Real) (?G2 Real) (?H2 Real) (?I2 Real) (?J2 Bool) (?K2 Bool) (?L2 Bool) (?M2 Bool) (?N2 Bool) (?O2 Bool) (?P2 Bool) (?Q2 Real) (?R2 Real) (?S2 Real) )(let (($x746648 (not ?O1)))
(let (($x912660 (or $x746648 ?P1)))
(let (($x467117 (not ?Q1)))
(let (($x178336 (or $x467117 ?R1)))
(let (($x71856 (not ?U1)))
(let (($x360293 (and ?O1 ?T1 $x71856 (<= ?N ?K) (>= ?N ?K) (<= ?O ?J1) (>= ?O ?J1) (<= ?P ?I1) (>= ?P ?I1) (<= ?Q ?H1) (>= ?Q ?H1) (<= ?R ?G1) (>= ?R ?G1))))
(let (($x844814 (>= ?F2 ?H1)))
(let (($x864523 (<= ?F2 ?H1)))
(let (($x38521 (>= ?E2 ?G1)))
(let (($x344116 (<= ?E2 ?G1)))
(let (($x479482 (and ?O1 ?K2 ?U1 $x344116 $x38521 $x864523 $x844814 (<= ?H2 ?I1) (>= ?H2 ?I1) (<= ?I2 ?J1) (>= ?I2 ?J1))))
(let (($x615673 (and ?K1 ?J2 ?S1 $x344116 $x38521 $x864523 $x844814 (<= ?H2 ?I1) (>= ?H2 ?I1) (<= ?I2 ?J1) (>= ?I2 ?J1))))
(let (($x557225 (and ?Y1 ?D2 (<= ?E2 1.0) (>= ?E2 1.0) (<= ?F2 ?G2) (>= ?F2 ?G2) (<= ?H2 ?G2) (>= ?H2 ?G2) (<= ?I2 2.0) (>= ?I2 2.0))))
(let (($x402953 (not ?C2)))
(let (($x545610 (or $x402953 (and ?D2 (not ?J2) (not ?K2)) (and ?J2 (not ?D2) (not ?K2)) (and ?K2 (not ?D2) (not ?J2)))))
(let (($x168081 (not ?P2)))
(let (($x865555 (and ?L2 ?O2 $x168081 (<= ?T ?I2) (>= ?T ?I2) (<= ?U ?H2) (>= ?U ?H2) (<= ?V ?F2) (>= ?V ?F2) (<= ?W ?E2) (>= ?W ?E2))))
(let (($x375330 (not ?S)))
(let (($x633716 (and ?M ?B1 (<= ?A ?R) (>= ?A ?R) (<= ?B ?C1) (>= ?B ?C1) (<= ?C ?Q) (>= ?C ?Q) (<= ?D ?P) (>= ?D ?P) (<= ?E ?O) (>= ?E ?O) (<= ?F ?N) (>= ?F ?N))))
(let (($x386355 (and ?S (not ?L) (<= ?A ?W) (>= ?A ?W) (<= ?B 1.0) (>= ?B 1.0) (<= ?C ?V) (>= ?C ?V) (<= ?D ?U) (>= ?D ?U) (<= ?E ?T) (>= ?E ?T) (<= ?F 2.0) (>= ?F 2.0))))
(let (($x510697 (and ?X (<= ?A ?W) (>= ?A ?W) (<= ?B 1.0) (>= ?B 1.0) (<= ?C ?Z) (>= ?C ?Z) (<= ?D ?U) (>= ?D ?U) (<= ?E ?A1) (>= ?E ?A1) (<= ?F 2.0) (>= ?F 2.0))))
(let (($x56282 (and (|cp-rel-bb.i58.i| ?G ?H ?I ?J ?K ?L ?G1 ?H1 ?I1 ?J1) (= ?F1 (= ?W 1.0)) (= ?Z (+ 1.0 ?V)) (= ?P2 (= ?S2 0.0)) (= ?N2 (= ?K 0.0)) (= ?A2 (= ?R2 ?H1)) (= ?R2 (+ 1.0 ?I1)) (= ?B1 (or ?E1 ?D1)) (= ?E1 (= ?N 0.0)) (= ?D1 (= ?O 0.0)) (= ?X1 (= ?G1 1.0)) (= ?U1 (= ?K 0.0)) (= ?S1 (= ?Q2 0.0)) (= ?N1 (= ?J1 0.0)) (or $x510697 $x386355 $x633716) (or (not ?X) ?Y) (or (not ?X) (and ?S ?Y ?L)) (or $x375330 ?O2) (or $x375330 $x865555) (or (not ?L2) ?M2) (or (not ?L2) (and ?C2 ?M2 ?N2)) $x545610 (or $x402953 $x557225 $x615673 $x479482) (or (not ?Y1) (and ?Z1 (not ?B2)) (and ?B2 (not ?Z1))) (or (not ?Y1) (and ?V1 ?Z1 ?A2) (and ?Q1 ?B2 (not ?X1))) (or (not ?V1) ?W1) (or (not ?V1) (and ?Q1 ?W1 ?X1)) (or (not ?M) ?T1) (or (not ?M) $x360293) $x178336 (or $x467117 (and ?K1 ?R1 (not ?S1))) $x912660 (or $x746648 (and ?L1 ?P1 (not ?N1))) (or (not ?K1) ?M1) (or (not ?K1) (and ?L1 ?M1 ?N1)) (= ?A1 (ite ?F1 0.0 ?T)))))
(=> $x56282 (|cp-rel-bb.i58.i.outer| ?A ?B ?C ?D ?E ?F)))))))))))))))))))))))))
)
(assert (forall ((?A Real) (?B Real) (?C Real) (?D Real) (?E Real) (?F Real) (?G Bool) (?H Real) (?I Real) (?J Real) (?K Real) (?L Real) (?M Bool) )(let (($x474829 (|cp-rel-bb.i58.i.us| ?A ?C ?D ?E ?F ?G ?H ?I ?J ?K ?L)))
(let (($x343144 (= ?M true)))
(let (($x21658 (<= ?J ?D)))
(let (($x5863 (>= ?J ?D)))
(let (($x701355 (<= ?K ?E)))
(let (($x504472 (>= ?K ?E)))
(let (($x596648 (<= ?L ?F)))
(let (($x103375 (>= ?L ?F)))
(let (($x323061 (and (|cp-rel-bb.i58.i.outer| ?A ?B ?C ?D ?E ?F) $x103375 $x596648 $x504472 $x701355 $x5863 $x21658 (>= ?I ?C) (<= ?I ?C) (>= ?H ?A) (<= ?H ?A) (= ?G true) $x343144 (= ?G (= ?B 1.0)))))
(=> $x323061 $x474829)))))))))))
)
(assert (forall ((?A Real) (?B Real) (?C Real) (?D Real) (?E Real) (?F Bool) (?G Real) (?H Real) (?I Real) (?J Real) (?K Real) (?L Bool) (?M Bool) (?N Bool) (?O Bool) (?P Bool) (?Q Bool) (?R Bool) (?S Bool) (?T Bool) (?U Bool) (?V Bool) (?W Bool) (?X Bool) (?Y Bool) (?Z Bool) (?A1 Bool) (?B1 Bool) (?C1 Bool) (?D1 Bool) (?E1 Real) (?F1 Real) (?G1 Real) (?H1 Real) (?I1 Real) (?J1 Bool) (?K1 Bool) (?L1 Real) (?M1 Bool) (?N1 Bool) (?O1 Bool) (?P1 Bool) (?Q1 Real) (?R1 Real) (?S1 Real) (?T1 Real) (?U1 Real) (?V1 Real) (?W1 Real) (?X1 Real) )(let (($x159703 (|cp-rel-bb.i58.i.us| ?A ?B ?C ?D ?E ?F ?T1 ?U1 ?V1 ?W1 ?X1)))
(let (($x323638 (not ?R)))
(let (($x99767 (or $x323638 ?S)))
(let (($x467117 (not ?V)))
(let (($x178336 (or $x467117 ?W)))
(let (($x153670 (and ?Y ?K1 (<= ?E1 1.0) (>= ?E1 1.0) (<= ?F1 ?L1) (>= ?F1 ?L1) (<= ?G1 ?L1) (>= ?G1 ?L1) (<= ?H1 2.0) (>= ?H1 2.0) (<= ?I1 0.0) (>= ?I1 0.0))))
(let (($x826880 (and ?L ?J1 ?T (<= ?E1 ?G) (>= ?E1 ?G) (<= ?F1 ?H) (>= ?F1 ?H) (<= ?G1 ?I) (>= ?G1 ?I) (<= ?H1 ?J) (>= ?H1 ?J) (<= ?I1 ?K) (>= ?I1 ?K))))
(let (($x286666 (and ?P ?D1 ?U (<= ?E1 ?G) (>= ?E1 ?G) (<= ?F1 ?H) (>= ?F1 ?H) (<= ?G1 ?I) (>= ?G1 ?I) (<= ?H1 ?J) (>= ?H1 ?J) (<= ?I1 ?K) (>= ?I1 ?K))))
(let (($x797898 (not ?C1)))
(let (($x74831 (or $x797898 (and ?D1 (not ?J1) (not ?K1)) (and ?J1 (not ?D1) (not ?K1)) (and ?K1 (not ?D1) (not ?J1)))))
(let (($x875641 (not ?M1)))
(let (($x522329 (or $x875641 ?N1)))
(let (($x439947 (and ?M1 ?P1 (<= ?T1 ?E1) (>= ?T1 ?E1) (<= ?U1 ?F1) (>= ?U1 ?F1) (<= ?V1 ?G1) (>= ?V1 ?G1) (<= ?W1 ?H1) (>= ?W1 ?H1) (<= ?X1 ?I1) (>= ?X1 ?I1))))
(let (($x531816 (not ?O1)))
(let (($x846341 (and ?C1 $x531816 (<= ?T1 ?E1) (>= ?T1 ?E1) (<= ?U1 ?F1) (>= ?U1 ?F1) (<= ?V1 ?G1) (>= ?V1 ?G1) (<= ?W1 ?H1) (>= ?W1 ?H1) (<= ?X1 ?I1) (>= ?X1 ?I1))))
(let (($x606643 (|cp-rel-bb.i58.i.us| ?A ?B ?C ?D ?E ?F ?G ?H ?I ?J ?K)))
(let (($x382579 (and $x606643 (= ?O1 (= ?I1 0.0)) (= ?A1 (= ?R1 ?H)) (= ?R1 (+ 1.0 ?I)) (= ?X (= ?G 1.0)) (= ?U (= ?K 0.0)) (= ?T (= ?Q1 0.0)) (= ?O (= ?J 0.0)) (or $x846341 $x439947) $x522329 (or $x875641 (and ?C1 ?N1 ?O1)) $x74831 (or $x797898 $x286666 $x826880 $x153670) (or (not ?Y) (and ?Z (not ?B1)) (and ?B1 (not ?Z))) (or (not ?Y) (and ?V ?Z ?A1) (and ?R ?B1 (not ?X))) $x178336 (or $x467117 (and ?R ?W ?X)) $x99767 (or $x323638 (and ?L ?S (not ?T))) (or (not ?P) ?Q) (or (not ?P) (and ?M ?Q (not ?O))) (or (not ?L) ?N) (or (not ?L) (and ?M ?N ?O)) (= ?P1 (= ?S1 0.0)))))
(=> $x382579 $x159703)))))))))))))))))))
)
(assert (forall ((?A Real) (?B Real) (?C Real) (?D Real) (?E Real) (?F Real) (?G Bool) (?H Real) (?I Real) (?J Real) (?K Real) (?L Bool) )(let (($x343144 (= ?L true)))
(let (($x21658 (<= ?I ?C)))
(let (($x5863 (>= ?I ?C)))
(let (($x701355 (<= ?J ?D)))
(let (($x504472 (>= ?J ?D)))
(let (($x596648 (<= ?K ?E)))
(let (($x103375 (>= ?K ?E)))
(let (($x608702 (and (|cp-rel-bb.i58.i.outer| ?A ?B ?C ?D ?E ?F) $x103375 $x596648 $x504472 $x701355 $x5863 $x21658 (>= ?H ?A) (<= ?H ?A) (not (= ?G true)) $x343144 (= ?G (= ?B 1.0)))))
(=> $x608702 (|cp-rel-bb.i58.i| ?A ?C ?D ?E ?F ?G ?H ?I ?J ?K)))))))))))
)
(assert (forall ((?A Real) (?B Real) (?C Real) (?D Real) (?E Real) (?F Bool) (?G Real) (?H Real) (?I Real) (?J Real) (?K Bool) (?L Bool) (?M Bool) (?N Bool) (?O Bool) (?P Bool) (?Q Bool) (?R Bool) (?S Bool) (?T Bool) (?U Bool) (?V Bool) (?W Bool) (?X Bool) (?Y Bool) (?Z Bool) (?A1 Bool) (?B1 Bool) (?C1 Bool) (?D1 Real) (?E1 Real) (?F1 Real) (?G1 Real) (?H1 Real) (?I1 Bool) (?J1 Bool) (?K1 Bool) (?L1 Bool) (?M1 Bool) (?N1 Bool) (?O1 Real) (?P1 Real) (?Q1 Real) (?R1 Real) (?S1 Real) (?T1 Real) (?U1 Real) )(let (($x323638 (not ?O)))
(let (($x99767 (or $x323638 ?P)))
(let (($x746648 (not ?Q)))
(let (($x912660 (or $x746648 ?R)))
(let (($x844814 (>= ?H1 ?J)))
(let (($x864523 (<= ?H1 ?J)))
(let (($x38521 (>= ?G1 ?I)))
(let (($x344116 (<= ?G1 ?I)))
(let (($x457919 (and ?O ?J1 ?T (<= ?D1 ?G) (>= ?D1 ?G) (<= ?E1 ?H) (>= ?E1 ?H) $x344116 $x38521 $x864523 $x844814)))
(let (($x66535 (and ?K ?I1 ?S (<= ?D1 ?G) (>= ?D1 ?G) (<= ?E1 ?H) (>= ?E1 ?H) $x344116 $x38521 $x864523 $x844814)))
(let (($x259951 (and ?X ?C1 (<= ?D1 1.0) (>= ?D1 1.0) (<= ?E1 ?F1) (>= ?E1 ?F1) (<= ?G1 ?F1) (>= ?G1 ?F1) (<= ?H1 2.0) (>= ?H1 2.0))))
(let (($x578847 (not ?B1)))
(let (($x231117 (or $x578847 (and ?C1 (not ?I1) (not ?J1)) (and ?I1 (not ?C1) (not ?J1)) (and ?J1 (not ?C1) (not ?I1)))))
(let (($x275737 (not ?K1)))
(let (($x67848 (or $x275737 ?L1)))
(let (($x407211 (not ?M1)))
(let (($x579690 (and ?B1 $x407211 (<= ?R1 ?D1) (>= ?R1 ?D1) (<= ?S1 ?E1) (>= ?S1 ?E1) (<= ?T1 ?G1) (>= ?T1 ?G1) (<= ?U1 ?H1) (>= ?U1 ?H1))))
(let (($x200465 (and ?K1 ?N1 (<= ?R1 ?D1) (>= ?R1 ?D1) (<= ?S1 ?E1) (>= ?S1 ?E1) (<= ?T1 ?G1) (>= ?T1 ?G1) (<= ?U1 ?H1) (>= ?U1 ?H1))))
(let (($x579429 (and (|cp-rel-bb.i58.i| ?A ?B ?C ?D ?E ?F ?G ?H ?I ?J) (= ?M1 (= ?E 0.0)) (= ?Z (= ?P1 ?H)) (= ?P1 (+ 1.0 ?I)) (= ?W (= ?G 1.0)) (= ?T (= ?E 0.0)) (= ?S (= ?O1 0.0)) (= ?N (= ?J 0.0)) (or $x200465 $x579690) $x67848 (or $x275737 (and ?B1 ?L1 ?M1)) $x231117 (or $x578847 $x259951 $x66535 $x457919) (or (not ?X) (and ?Y (not ?A1)) (and ?A1 (not ?Y))) (or (not ?X) (and ?U ?Y ?Z) (and ?Q ?A1 (not ?W))) (or (not ?U) ?V) (or (not ?U) (and ?Q ?V ?W)) $x912660 (or $x746648 (and ?K ?R (not ?S))) $x99767 (or $x323638 (and ?L ?P (not ?N))) (or (not ?K) ?M) (or (not ?K) (and ?L ?M ?N)) (= ?N1 (= ?Q1 0.0)))))
(=> $x579429 (|cp-rel-bb.i58.i| ?A ?B ?C ?D ?E ?F ?R1 ?S1 ?T1 ?U1))))))))))))))))))))))
)
(assert (forall ((?A Real) (?B Real) (?C Real) (?D Real) (?E Real) (?F Bool) (?G Real) (?H Real) (?I Real) (?J Real) (?K Real) (?L Bool) (?M Bool) (?N Bool) (?O Bool) (?P Bool) (?Q Bool) (?R Bool) (?S Real) (?T Real) (?U Real) (?V Real) (?W Real) (?X Bool) (?Y Bool) (?Z Bool) )(let (($x608080 (|cp-rel-__UFO__0| ?A ?B ?C ?D ?E ?F ?S ?T ?U ?V ?W)))
(let (($x407211 (not ?R)))
(let (($x154951 (and ?N ?Q $x407211 (<= ?S ?K) (>= ?S ?K) (<= ?T ?J) (>= ?T ?J) (<= ?U ?I) (>= ?U ?I) (<= ?V ?H) (>= ?V ?H) (<= ?W ?G) (>= ?W ?G))))
(let (($x275737 (not ?P)))
(let (($x67848 (or $x275737 ?Q)))
(let (($x330898 (not (= ?X true))))
(let (($x133250 (|cp-rel-bb.i58.i.us| ?A ?B ?C ?D ?E ?F ?G ?H ?I ?J ?K)))
(let (($x852885 (and $x133250 (= ?Z (= ?S 0.0)) (= ?Y (= ?T 0.0)) (= ?R (= ?K 0.0)) (= ?M (= ?J 0.0)) $x330898 (= ?P true) $x67848 (or $x275737 $x154951) (or (not ?N) ?O) (or (not ?N) (and ?L ?O (not ?M))) (= ?X (or ?Z ?Y)))))
(=> $x852885 $x608080))))))))))
)
(assert (forall ((?A Real) (?B Real) (?C Real) (?D Real) (?E Real) (?F Bool) (?G Bool) (?H Real) (?I Real) (?J Real) (?K Real) (?L Real) (?M Bool) (?N Bool) (?O Bool) (?P Real) (?Q Real) (?R Real) (?S Real) (?T Bool) (?U Bool) (?V Bool) (?W Bool) (?X Bool) (?Y Bool) )(let (($x412789 (|cp-rel-__UFO__0| ?A ?B ?C ?D ?E ?F ?H ?I ?J ?K ?L)))
(let (($x365800 (and ?V ?X (not ?Y) (<= ?H ?E) (>= ?H ?E) (<= ?I ?S) (>= ?I ?S) (<= ?J ?R) (>= ?J ?R) (<= ?K ?Q) (>= ?K ?Q) (<= ?L ?P) (>= ?L ?P))))
(let (($x847203 (not ?G)))
(let (($x316003 (and (|cp-rel-bb.i58.i| ?A ?B ?C ?D ?E ?F ?P ?Q ?R ?S) (= ?O (= ?H 0.0)) (= ?N (= ?I 0.0)) (= ?Y (= ?E 0.0)) (= ?U (= ?S 0.0)) (not (= ?M true)) (= ?G true) (or $x847203 ?X) (or $x847203 $x365800) (or (not ?V) ?W) (or (not ?V) (and ?T ?W (not ?U))) (= ?M (or ?O ?N)))))
(=> $x316003 $x412789))))))
)
(assert (forall ((?A Real) (?B Real) (?C Real) (?D Real) (?E Real) (?F Bool) (?G Real) (?H Real) (?I Real) (?J Real) (?K Real) (?L Bool) )(let (($x553534 (|cp-rel-__UFO__0| ?A ?B ?C ?D ?E ?F ?G ?H ?I ?J ?K)))
(=> (and $x553534 (= ?L true)) $x553534)))
)
(assert (forall ((?A Real) (?B Real) (?C Real) (?D Real) (?E Real) (?F Bool) (?G Real) (?H Real) (?I Real) (?J Real) (?K Real) (?L Bool) (?M Bool) (?N Bool) (?O Bool) (?P Bool) (?Q Bool) (?R Bool) (?S Bool) (?T Bool) (?U Bool) (?V Bool) (?W Real) (?X Real) )(let (($x314487 (not ?L)))
(let (($x418787 (or $x314487 (and ?M ?N ?O))))
(let (($x287201 (or $x314487 ?N)))
(let (($x407211 (not ?P)))
(let (($x561903 (or $x407211 (and ?L ?Q (not ?R)))))
(let (($x444246 (or $x407211 ?Q)))
(let (($x104192 (or (not ?S) (and ?P ?T ?U))))
(let (($x554374 (or (not ?S) ?T)))
(let (($x864534 (= ?S true)))
(let (($x330898 (not (= ?V true))))
(let (($x28049 (= ?R (= ?W 0.0))))
(let (($x168631 (|cp-rel-bb.i58.i.us| ?A ?B ?C ?D ?E ?F ?G ?H ?I ?J ?K)))
(let (($x47122 (and $x168631 (= ?X (+ 1.0 ?I)) (= ?U (= ?G 1.0)) $x28049 (= ?O (= ?J 0.0)) $x330898 $x864534 $x554374 $x104192 $x444246 $x561903 $x287201 $x418787 (= ?V (= ?X ?H)))))
(=> $x47122 |cp-rel-bb1.i24.i.i.split|)))))))))))))))
)
(assert (forall ((?A Real) (?B Real) (?C Real) (?D Real) (?E Real) (?F Bool) (?G Real) (?H Real) (?I Real) (?J Real) (?K Bool) (?L Bool) (?M Bool) (?N Bool) (?O Bool) (?P Bool) (?Q Bool) (?R Bool) (?S Bool) (?T Bool) (?U Bool) (?V Real) (?W Real) )(let (($x314487 (not ?K)))
(let (($x418787 (or $x314487 (and ?L ?M ?N))))
(let (($x287201 (or $x314487 ?M)))
(let (($x407211 (not ?O)))
(let (($x561903 (or $x407211 (and ?K ?P (not ?Q)))))
(let (($x444246 (or $x407211 ?P)))
(let (($x104192 (or (not ?R) (and ?O ?S ?T))))
(let (($x554374 (or (not ?R) ?S)))
(let (($x864534 (= ?R true)))
(let (($x330898 (not (= ?U true))))
(let (($x28049 (= ?Q (= ?V 0.0))))
(let (($x597275 (and (|cp-rel-bb.i58.i| ?A ?B ?C ?D ?E ?F ?G ?H ?I ?J) (= ?W (+ 1.0 ?I)) (= ?T (= ?G 1.0)) $x28049 (= ?N (= ?J 0.0)) $x330898 $x864534 $x554374 $x104192 $x444246 $x561903 $x287201 $x418787 (= ?U (= ?W ?H)))))
(=> $x597275 |cp-rel-bb1.i24.i.i.split|))))))))))))))
)
(assert (not cp-rel-bb1.i24.i.i.split))
(check-sat)
